(declare-datatypes ((Lst 0)) (((cons (param124 Int) (param125 Lst))(nil))))
(declare-datatypes ((Queue 0)) (((queue  (param126 Lst) (param127 Lst)))))
(declare-fun append (Lst Lst ) Lst)
(declare-fun len (Lst ) Int)
(declare-fun qlen (Queue ) Int)
(declare-fun len (Int ) Lst)
(assert (forall ((|_FH_2'| Lst)) (= (append nil |_FH_2'|) |_FH_2'|)))
(assert (forall ((x Int) (_FH_0 Lst) (_FH_2 Lst)) (= (append (cons x _FH_0) (cons x _FH_2)) (append _FH_0 _FH_2))))
(assert (not (forall ((_FH_4 Int) (_FH_11 Int)) (= (+ _FH_4 _FH_11) (qlen (queue (len _FH_4) (len _FH_11)))))))
(check-sat)